208
CC19_3F (2)
N         10.84610       19.74930       12.07450
N         13.47610       14.85690       16.08540
O         11.61090       17.42380       14.07830
N         17.80420       17.94520       11.11140
C         14.62440       18.80520       12.47180
C         13.27980       18.69450       12.89340
C         12.90980       17.55230       13.64430
C         13.84580       16.52160       13.92620
C         15.17440       16.68340       13.47370
C         15.59420       17.82610       12.76340
C         16.89820       13.23700        5.88300
C         16.62670       12.07990        5.11320
C         16.97660       10.82250        5.65440
C         17.56970       10.68470        6.92380
C         17.77960       11.85600        7.67830
C         17.45640       13.13900        7.18480
C         18.40530        7.43660       10.81570
C         12.31370       19.89810       12.62680
C         17.51590        8.65110       10.46790
N         17.31020        8.15620        7.99150
C         17.11490       18.09770       12.51860
C         13.39770       15.15560       14.54800
C         12.70700       13.58180       16.61960
C         17.53510       14.37770        8.13800
C         13.42130       12.80870        3.85670
C         17.58060        6.17770       11.13720
N         18.80880       15.28500        8.24780
C         14.44320       13.12950       18.48100
C         18.17670        9.32240        7.38930
N         14.84370       13.01090        3.21760
C         12.99030       13.53560       18.14580
C         16.07660       12.13420        3.64950
C         16.49960        8.36030        9.32470
C         20.05120       17.32800        8.96150
C         18.64390       16.67170        8.99050
C         16.54660        5.84920       10.03720
C         15.63560        7.05080        9.66200
C         18.08140       16.52480       10.48670
C         12.94230       11.36650        3.52350
O         16.58110       14.47550        5.37500
C         12.64680       11.15240        2.02230
C         19.13560       15.80980       11.38240
C         20.52970       16.47650       11.33620
C         21.06380       16.63530        9.90080
N         14.68130        7.26060       10.90400
N         12.23300       11.02650       16.36160
O         14.22760        8.74700       13.56610
N          7.82700        8.97200       11.08810
C         11.18600        8.87250       11.51080
C         12.53160        8.66790       11.88730
C         12.90410        8.91760       13.22900
C         11.95300        9.37300       14.18220
C         10.61870        9.54880       13.75500
C         10.21750        9.33550       12.41910
C          8.64240       13.40720        6.36810
C          9.67160       14.37680        6.35300
C          9.58700       15.46070        7.25270
C          8.53320       15.59200        8.17420
C          7.51330       14.61610        8.14930
C          7.55240       13.50470        7.27700
C          9.32560       21.17300        8.97940
C         13.57760        8.36240       10.76660
C          8.48770       20.48460       10.07950
N          8.56640       18.16710        9.16120
C          8.81810        9.83870       11.94050
C         12.33440        9.60930       15.68170
C         13.14420       12.22170       15.88750
C          6.38130       12.46450        7.27180
C         12.40040       13.89870        3.26850
C         10.83340       21.13950        9.28110
N          6.08850       11.50000        8.48340
C         14.87490       11.83030       17.77570
C          8.62880       16.61220        9.35420
N         10.99590       13.87880        3.99200
C         14.61400       11.86390       16.25200
C         10.98650       14.20200        5.52350
C          8.95550       19.04160       10.42040
C          7.73890        9.65010        7.97260
C          7.22460       10.59840        9.09490
C         11.33820       19.71310        9.58850
C         10.53590       19.00960       10.72130
C          6.67040        9.75730       10.34910
C         12.09550       13.64320        1.76630
O          8.76150       12.34540        5.50120
C         11.65980       12.19240        1.46380
C          5.65940        8.67090        9.88720
C          6.18050        7.77290        8.74380
C          6.70210        8.58760        7.54850
H         10.23770       19.43100       12.82090
H         14.44270       14.78330       16.39330
H         11.40130       17.95220       14.87110
H         14.94340       19.72330       11.99040
H         15.91240       15.93260       13.72490
H         16.87120        9.94040        5.03230
H         18.25280       11.76680        8.64780
H         19.04450        7.67050       11.67220
H         19.10670        7.21440       10.00760
H         12.15300       20.42730       13.57020
H         12.77440       20.62600       11.95430
H         18.18230        9.47930       10.22330
H         16.98700        8.93270       11.37980
H         16.75660        7.72270        7.26000
H         12.35630       14.95370       14.28980
H         14.00030       14.35160       14.12330
H         11.64720       13.81560       16.49040
H         17.39250       14.04980        9.16870
H         16.72940       15.07590        7.90270
H         13.57780       12.97310        4.92270
H         17.09960        6.28280       12.11150
H         18.25980        5.32740       11.26110
H         19.57450       14.78560        8.69450
H         14.54220       12.99740       19.56370
H         15.14300       13.93350       18.24450
H         18.97280        9.48360        8.11950
H         18.65680        8.83690        6.53430
H         14.73490       12.81150        2.22220
H         12.79730       14.49880       18.62800
H         12.33190       12.81380       18.63560
H         15.84100       11.13360        3.27920
H         16.86910       12.51370        2.99850
H         15.84430        9.20450        9.11280
H         19.99160       18.37560        9.26710
H         20.48220       17.32880        7.95570
H         17.99240       17.26500        8.34400
H         15.96300        4.98930       10.38000
H         17.10260        5.50580        9.16110
H         14.98600        6.73260        8.84240
H         17.11420       16.02230       10.48900
H         13.67700       10.61560        3.81870
H         12.02360       11.14000        4.06710
H         17.22800       14.81660        4.72910
H         13.56600       11.16960        1.43140
H         12.23820       10.15080        1.85830
H         19.26590       14.77470       11.06270
H         18.83210       15.77350       12.42970
H         20.52070       17.45070       11.83130
H         21.24590       15.88700       11.91700
H         21.99150       17.21690        9.92760
H         21.36860       15.66380        9.50640
H         15.25070        7.43300       11.72810
H         12.49100       10.85880       17.33590
H         14.40130        8.25910       14.39240
H          8.28660        8.36320       10.42150
H         10.90520        8.72840       10.47650
H          9.88110        9.88100       14.47600
H         10.39340       16.18040        7.28050
H          6.68260       14.70700        8.83930
H          9.00430       22.21530        8.88000
H          9.12690       20.73560        7.99910
H         14.15190        9.27340       10.60290
H         13.07940        8.10730        9.82840
H          7.44260       20.50340        9.75550
H          8.53570       21.11820       10.96880
H          9.09160       18.49810        8.35980
H          8.20080       10.14850       12.78850
H          8.98950       10.72510       11.33250
H         11.66390        9.01100       16.30560
H         13.34200        9.26070       15.91310
H         12.98180       12.29130       14.81180
H          6.43890       11.79300        6.41310
H          5.43230       12.99840        7.16640
H         12.76090       14.92640        3.36220
H         11.05320       21.82370       10.10460
H         11.37590       21.55750        8.42800
H          5.56170       11.99220        9.19840
H         15.93810       11.65870       17.97010
H         14.37550       10.97920       18.24510
H          9.58380       16.44890        9.85160
H          7.84630       16.42450       10.09440
H         10.39890       14.52350        3.47590
H         15.29960       12.59800       15.82570
H         14.90950       10.89250       15.85190
H         11.54800       13.37320        5.95460
H         11.60590       15.09880        5.59510
H          8.34600       18.66790       11.24780
H          8.62790        9.11480        8.30820
H          8.02270       10.19990        7.07440
H          7.98090       11.31080        9.42270
H         12.39950       19.79040        9.83030
H         11.26550       19.14090        8.66270
H         10.86190       17.98540       10.90100
H          6.18920       10.37500       11.11250
H         12.98030       13.84840        1.15850
H         11.31130       14.30790        1.39130
H          7.95940       12.09390        5.00710
H         11.57480       12.05800        0.38010
H         10.65430       11.99520        1.84040
H          4.73480        9.13820        9.53900
H          5.36950        8.01440       10.71360
H          5.37240        7.11610        8.40410
H          6.95200        7.08770        9.10030
H          7.13900        7.90290        6.81570
H          5.85760        9.04330        7.02540
H         17.39240       18.59290       10.44960
H         17.73060       17.52080       13.21100
H         17.31840       19.14680       12.75380
H         10.54060       20.71460       11.94370
H          7.61470       18.44390        8.91540
H         13.13640       15.64520       16.63420
H         11.26020       11.29470       16.45850
H          5.38110       10.85650        8.12460
H          7.35960        8.29830       11.69770
H         14.27010        6.35050       11.10910
H         17.99100        7.42120        8.19050
H         19.19760       15.49480        7.33010
H         18.72950       18.35720       11.24660
H         15.11550       13.98730        3.21300
H         10.54880       12.98260        3.81680
