204
CC3_3F (2)
N         33.48120       21.49810       42.31550
H         33.10220       21.60930       43.25740
H         34.46420       21.34020       42.51490
N         32.64820       17.59260       41.79640
H         32.76930       16.83920       42.47570
H         31.63900       17.65730       41.73640
N         30.40070       25.19540       37.05890
H         30.89390       26.07670       37.19000
H         29.81990       25.12510       37.88930
C         32.62840       23.83630       37.92810
C         32.44570       23.52100       39.29010
H         31.45040       23.56280       39.71520
C         33.52630       23.16190       40.12670
C         34.81910       23.13260       39.56360
H         35.65730       22.87280       40.19930
C         35.04840       23.41350       38.19880
C         33.94080       23.77950       37.40760
H         34.09320       23.96390       36.35340
N         35.50550       13.33270       36.74290
H         36.16980       13.59090       37.46490
H         35.82350       12.39040       36.50840
N         39.32670       22.11460       33.96870
H         39.97700       22.86360       33.72510
H         39.88950       21.56850       34.61300
C         27.95280       24.40500       33.96570
H         28.66260       24.65000       33.17320
H         27.26190       25.24910       34.04690
N         37.35680       24.11990       36.85730
H         36.85490       24.78110       36.27530
H         37.76390       24.73370       37.56520
N         27.03810       23.27930       33.35540
H         26.25760       23.15860       33.99320
H         26.56970       23.72000       32.56370
N         37.45830       15.37540       33.85730
H         37.08040       14.93040       33.02600
H         38.46050       15.36100       33.66530
C         33.29370       22.91330       41.65070
H         33.96130       23.55440       42.23400
H         32.27860       23.20110       41.93550
C         27.60470       21.93120       32.90940
C         26.88240       20.75430       33.19620
H         25.93740       20.81250       33.72560
C         27.31950       19.49840       32.71670
C         28.50160       19.46100       31.93950
H         28.82500       18.50890       31.53870
C         29.23700       20.62590       31.61950
C         28.76710       21.86340       32.11620
H         29.30190       22.77080       31.86570
C         31.42160       24.01490       36.95160
H         30.79020       23.12720       37.00200
H         31.78560       24.10760       35.92630
C         37.39960       20.13360       31.17140
H         37.56430       20.91880       30.44190
C         38.12860       20.17210       32.38120
C         38.00520       19.07280       33.25640
H         38.59120       19.06460       34.16590
C         37.17830       17.96470       32.95570
C         36.46680       17.97920       31.73610
H         35.86460       17.12220       31.46490
C         36.57310       19.04750       30.81880
C         36.42580       23.06380       37.54840
H         36.24300       22.31920       36.77560
H         37.09140       22.60290       38.28330
N         26.33570       17.34740       34.15110
H         25.61320       16.65610       33.93970
H         25.89290       17.87210       34.89740
N         28.53640       15.12130       36.70490
H         28.22910       14.71620       37.58920
H         28.73560       14.29410       36.14820
C         28.67030       24.11210       35.35610
H         29.41500       23.34090       35.16350
C         39.15240       21.33360       32.61150
H         40.16010       20.95310       32.42100
H         38.99660       22.12930       31.87880
C         29.42530       25.44040       35.84350
H         30.06490       25.84410       35.05400
C         37.90490       13.05740       34.66960
H         38.93120       13.20910       34.32120
H         37.97450       12.38700       35.53000
C         36.93940       16.84760       34.02280
H         35.86560       16.73290       34.16830
H         37.37250       17.15000       34.97900
C         27.66490       23.58860       36.43440
H         26.81210       23.05730       36.01110
H         28.16180       22.79060       36.98830
C         32.78240       20.22950       41.70040
H         33.15930       20.19230       40.67900
C         28.45200       26.55120       36.33380
H         28.91880       27.24850       37.03610
H         28.17330       27.18060       35.48420
C         33.33480       17.19200       40.44410
H         34.33650       16.89340       40.76590
H         33.44630       18.13080       39.90510
C         34.08170       13.11680       37.38130
H         33.54880       12.49810       36.65590
H         34.29260       12.46380       38.23340
C         31.49840       16.35500       38.80630
H         30.87700       17.17620       39.13520
C         31.07500       15.57250       37.70730
C         31.94020       14.55650       37.24970
H         31.64080       13.94120       36.41030
C         33.19080       14.30770       37.85840
C         33.55900       15.10420       38.96150
H         34.50780       14.91110       39.44820
C         32.74240       16.15240       39.43850
C         33.20070       18.89810       42.49880
H         34.28200       18.76000       42.58490
C         37.14400       12.29920       33.55910
H         37.25350       12.79760       32.59390
H         37.60670       11.31780       33.40900
C         29.81450       16.01060       36.89240
H         29.40480       16.92800       37.32040
H         30.12400       16.23310       35.87090
N         34.75570       19.74090       28.85320
H         34.97970       20.72980       28.83990
H         34.72770       19.52970       27.85390
C         27.23370       24.60920       37.51060
H         27.91110       24.60560       38.36570
H         26.26420       24.32120       37.92800
C         38.10870       22.82240       34.67290
H         37.42270       22.00610       34.89560
C         37.22970       14.39490       35.07930
H         37.80930       14.81660       35.90450
C         38.89360       25.75090       34.70600
H         38.06300       26.31330       35.13670
H         39.64050       26.51490       34.46470
C         26.41810       18.22450       32.84420
H         25.37380       18.51600       32.69640
H         26.63810       17.51550       32.04350
C         27.12780       26.03330       36.94470
H         26.32960       26.06850       36.19890
H         26.78890       26.72030       37.72650
C         31.24310       20.45580       41.76410
H         30.72270       19.67360       41.21040
H         30.95250       21.40780       41.31750
C         35.99190       18.91410       29.37260
H         35.76150       17.87300       29.13960
H         36.77210       19.20400       28.66230
N         30.79120       20.35010       29.35650
H         30.42630       19.45300       29.04740
H         30.20540       21.00450       28.83760
C         35.67560       14.18720       35.43040
H         35.20540       15.14160       35.66610
C         27.57520       16.51040       34.64780
H         28.38080       17.23950       34.73060
C         38.44920       25.05550       33.40810
H         39.33190       24.74880       32.84120
H         37.95390       25.78840       32.76440
C         34.95560       13.42890       34.27730
H         33.92250       13.18500       34.53010
H         34.92210       14.04770       33.37950
C         38.57810       23.54030       36.03460
H         39.11340       22.87550       36.71810
C         32.59270       18.89130       43.92890
H         32.76930       17.93810       44.43680
H         33.07410       19.65330       44.54740
C         32.91130       18.00490       28.93990
H         33.64520       17.26580       29.26370
H         31.96020       17.71370       29.38800
C         30.68460       20.43990       43.20360
H         31.01950       21.31360       43.76860
H         29.59430       20.52760       43.18860
C         27.27100       15.83330       36.07280
H         26.94360       16.55320       36.82730
C         27.86280       15.40950       33.58520
H         27.97770       15.82360       32.58250
H         28.79530       14.89320       33.81780
C         37.51130       23.85860       33.67640
H         37.27850       23.40730       32.71070
H         36.57810       24.26510       34.06820
C         32.75610       17.85250       27.40960
H         33.72070       17.93590       26.90260
H         32.41040       16.84340       27.16530
C         33.29680       19.44900       29.37700
H         33.36380       19.56190       30.45900
C         31.77300       18.87460       26.81080
H         31.79990       18.79780       25.71850
H         30.74760       18.60590       27.07230
C         31.07250       19.16180       43.96600
H         30.74830       19.25470       45.00810
H         30.51010       18.30770       43.58410
C         35.65320       12.10560       33.88960
H         35.55140       11.35720       34.67960
H         35.15440       11.65540       33.02600
C         26.17660       14.73660       35.97570
H         26.05090       14.19830       36.92020
H         25.20580       15.18530       35.75050
C         32.09510       20.32680       27.22940
H         33.01530       20.61540       26.71500
H         31.30770       20.96860       26.82230
C         39.49020       24.76190       35.73170
H         39.71870       25.32910       36.63940
H         40.45340       24.42700       35.33830
C         26.75750       14.33170       33.50860
H         25.83350       14.73930       33.09080
H         27.04740       13.54600       32.80410
C         32.25210       20.50570       28.76470
H         32.53150       21.54670       28.94650
C         26.46150       13.68940       34.87620
H         25.59800       13.02280       34.77810
H         27.28010       13.02680       35.16420
C         30.62750       20.54170       30.90590
H         31.18840       21.45970       31.09510
H         31.19700       19.71430       31.33010
